N = 3;
Capacity = 4;
nbVehicles = 3;
maxVisitsPerCustomer = 2;
ItemsPerCustomer = [2, 2, 7];
maxItemsPerCustomer = 7;
binCapacity = 50;
SizesOfItems = [|
  38, 21, 0, 0, 0, 0, 0
| 32, 14, 0, 0, 0, 0, 0
| 34, 28, 27, 26, 16, 15, 14
|];
Distance = [|
  0, 22, 45, 44
| 22, 0, 67, 63
| 45, 67, 0, 31
| 44, 63, 31, 0
|];
